(set-info :smt-lib-version 2.6)
(set-logic QF_LIA)
(set-info :category "industrial")
(set-info :status sat)
(declare-fun x0 () Int)
(declare-fun x1 () Int)
(declare-fun x10 () Int)
(declare-fun x11 () Int)
(declare-fun x12 () Int)
(declare-fun x13 () Int)
(declare-fun x14 () Int)
(declare-fun x15 () Int)
(declare-fun x16 () Int)
(declare-fun x17 () Int)
(declare-fun x18 () Int)
(declare-fun x19 () Int)
(declare-fun x2 () Int)
(declare-fun x20 () Int)
(declare-fun x21 () Int)
(declare-fun x22 () Int)
(declare-fun x23 () Int)
(declare-fun x24 () Int)
(declare-fun x3 () Int)
(declare-fun x4 () Int)
(declare-fun x5 () Int)
(declare-fun x6 () Int)
(declare-fun x7 () Int)
(declare-fun x8 () Int)
(declare-fun x9 () Int)
(assert (let ((?v_14 (* 0 x1)) (?v_20 (* 1 x13)) (?v_2 (* 0 x14)) (?v_9 (* 0 x16)) (?v_36 (* 1 x18)) (?v_41 (* 1 x21)) (?v_1 (* 0 x0)) (?v_15 (* 0 x11)) (?v_28 (* 0 x23)) (?v_58 (* 1 x1)) (?v_22 (* 1 x19)) (?v_11 (* 1 x22)) (?v_52 (* 1 x3)) (?v_21 (* 0 x18)) (?v_18 (* 1 x6)) (?v_30 (* 0 x7))) (let ((?v_79 (+ ?v_18 ?v_30)) (?v_6 (* 0 x10)) (?v_8 (* 0 x13)) (?v_51 (* 1 x16)) (?v_35 (* 0 x9)) (?v_10 (* 1 x20)) (?v_26 (* 1 x7)) (?v_13 (* 1 x8)) (?v_88 (* 2 x24)) (?v_25 (* 0 x5)) (?v_27 (* 1 x11)) (?v_17 (* 0 x21)) (?v_23 (* 1 x2)) (?v_24 (* 0 x22)) (?v_61 (* 0 x4))) (let ((?v_81 (+ ?v_61 ?v_18)) (?v_60 (* 0 x20)) (?v_34 (* 0 x6)) (?v_43 (* 1 x10)) (?v_39 (* 0 x19)) (?v_49 (* 0 x24)) (?v_33 (* 0 x3)) (?v_47 (* 1 x4)) (?v_82 (+ ?v_30 ?v_13)) (?v_48 (* 1 x0)) (?v_38 (* 0 x15)) (?v_42 (* 0 x8)) (?v_46 (* 1 x23)) (?v_45 (* 0 x2)) (?v_67 (* 1 x24)) (?v_50 (* 0 x17)) (?v_65 (* 1 x14)) (?v_62 (+ ?v_25 ?v_35)) (?v_78 (* 2 x23)) (?v_90 (* 2 x3)) (?v_54 (* 1 x9)) (?v_72 (* 2 x5)) (?v_64 (* 2 x13)) (?v_66 (* 1 x17)) (?v_59 (* 0 x12)) (?v_75 (* 2 x11)) (?v_74 (* 1 x5))) (let ((?v_76 (+ ?v_74 ?v_13)) (?v_94 (* 2 x10)) (?v_70 (* 1 x15)) (?v_92 (* 2 x1)) (?v_73 (* 2 x2)) (?v_93 (* 2 x9)) (?v_87 (* 2 x21)) (?v_86 (* 2 x20)) (?v_80 (+ ?v_25 ?v_13)) (?v_96 (* 2 x16)) (?v_84 (* 1 x12)) (?v_91 (* 2 x7)) (?v_37 (* (- 1) x11)) (?v_7 (* (- 2) x12)) (?v_3 (* (- 1) x15)) (?v_0 (* (- 1) x17)) (?v_12 (* (- 1) x24)) (?v_4 (* (- 1) x3)) (?v_68 (* (- 1) x7)) (?v_29 (* (- 1) x5)) (?v_5 (* (- 1) x1)) (?v_32 (* (- 1) x22)) (?v_16 (* (- 1) x23)) (?v_83 (* (- 1) x6)) (?v_19 (* (- 1) x12)) (?v_31 (* (- 1) x16)) (?v_69 (* (- 1) x9)) (?v_57 (* (- 1) x21)) (?v_40 (* (- 1) x20)) (?v_63 (* (- 1) x2)) (?v_44 (* (- 1) x18)) (?v_53 (* (- 1) x4)) (?v_55 (* (- 1) x13)) (?v_56 (* (- 1) x8)) (?v_71 (* (- 1) x10)) (?v_89 (* (- 2) x1)) (?v_77 (* (- 1) x14)) (?v_85 (* (- 2) x14)) (?v_95 (* (- 1) x0))) (and (<= (+ ?v_37 (+ ?v_14 (+ ?v_7 (+ ?v_20 (+ ?v_2 (+ ?v_3 (+ ?v_0 (+ ?v_9 (+ (* (- 1) x19) (+ ?v_12 (+ ?v_4 (+ ?v_68 (+ ?v_36 (+ ?v_41 (* 2 x4))))))))))))))) 1) (<= (+ ?v_0 (+ ?v_1 (+ ?v_15 (+ ?v_28 (+ ?v_58 (+ (* (- 3) x12) (+ ?v_22 (+ ?v_11 (+ ?v_52 (+ ?v_29 (+ ?v_21 ?v_79))))))))))) 0) (<= (+ ?v_1 (+ ?v_5 (+ ?v_6 (+ ?v_8 (+ ?v_2 (+ ?v_3 (+ ?v_0 (+ ?v_51 (+ ?v_32 (+ ?v_16 (+ ?v_4 (+ ?v_83 (+ ?v_35 (+ ?v_10 (+ ?v_26 (+ ?v_13 (+ ?v_88 ?v_25))))))))))))))))) 1) (<= (+ ?v_1 (+ ?v_5 (+ ?v_6 (+ ?v_27 (+ ?v_7 (+ ?v_8 (+ ?v_3 (+ ?v_9 (+ ?v_17 (+ ?v_23 (+ ?v_10 (+ ?v_11 (+ ?v_12 ?v_13))))))))))))) 0) (<= (+ (* (- 2) x8) (+ ?v_14 (+ ?v_6 (+ ?v_15 (+ ?v_19 (+ ?v_8 (+ ?v_3 (+ ?v_31 (+ ?v_16 (+ ?v_69 (+ ?v_17 (+ ?v_24 ?v_81)))))))))))) 1) (<= (+ (* (- 3) x9) (+ ?v_14 (+ ?v_6 (+ ?v_19 (+ ?v_20 (+ ?v_57 (+ (* 2 x15) (+ ?v_21 (+ ?v_22 (+ ?v_23 (+ ?v_60 (+ ?v_24 (+ ?v_25 (+ ?v_34 ?v_26)))))))))))))) 1) (<= (+ ?v_14 (+ ?v_43 (+ ?v_27 (+ ?v_19 (+ ?v_20 (+ ?v_2 (+ ?v_9 (+ ?v_39 (+ ?v_17 (+ ?v_28 (+ ?v_23 (+ ?v_40 (+ ?v_49 (+ ?v_33 (+ ?v_47 (+ ?v_29 (+ ?v_21 ?v_82))))))))))))))))) 0) (<= (+ ?v_48 (+ ?v_5 (+ (* (- 2) x4) (+ ?v_19 (+ ?v_31 (+ ?v_63 (+ ?v_32 (+ ?v_38 (+ ?v_12 (+ ?v_33 (+ ?v_34 (+ ?v_42 (+ ?v_35 (+ ?v_36 (+ ?v_10 ?v_46))))))))))))))) 1) (<= (+ ?v_37 (+ ?v_14 (+ ?v_19 (+ ?v_2 (+ ?v_38 (+ (* 2 x17) (+ ?v_44 (+ ?v_39 (+ ?v_45 (+ ?v_40 (+ ?v_41 (+ ?v_33 (+ ?v_67 (+ ?v_53 (+ ?v_25 (+ ?v_34 (+ ?v_42 ?v_35))))))))))))))))) 1) (<= (+ ?v_14 (+ ?v_9 (+ ?v_50 (+ ?v_43 (+ ?v_27 (+ ?v_20 (+ ?v_38 (+ ?v_44 (+ ?v_45 (+ ?v_24 (+ ?v_35 (+ ?v_46 (+ ?v_47 (+ ?v_18 (* 2 x8))))))))))))))) 0) (<= (+ ?v_55 (+ ?v_31 (+ ?v_48 (+ ?v_14 (+ ?v_15 (+ ?v_65 (+ ?v_44 (+ ?v_41 (+ ?v_32 (+ ?v_28 (+ ?v_56 (+ ?v_10 (+ ?v_49 (+ ?v_33 ?v_62)))))))))))))) 0) (<= (+ ?v_48 (+ ?v_71 (+ ?v_2 (+ ?v_50 (+ ?v_51 (+ ?v_22 (+ ?v_40 (+ ?v_11 (+ ?v_78 (+ ?v_12 (+ ?v_90 (+ ?v_34 (+ ?v_54 ?v_72))))))))))))) 0) (<= (+ (* (- 2) x2) (+ ?v_3 (+ ?v_14 (+ ?v_15 (+ ?v_64 (+ ?v_2 (+ ?v_66 (+ ?v_24 (+ ?v_49 (+ ?v_52 (+ ?v_53 (+ ?v_29 (+ ?v_59 (+ ?v_34 (+ ?v_30 (+ ?v_42 ?v_54)))))))))))))))) 1) (<= (+ ?v_1 (+ ?v_89 (+ ?v_55 (+ ?v_27 (+ ?v_38 (+ ?v_9 (+ ?v_39 (+ ?v_28 (+ ?v_10 (+ ?v_41 (+ ?v_52 (+ ?v_29 (+ ?v_56 ?v_21))))))))))))) (- 1)) (<= (+ ?v_57 (+ ?v_48 (+ ?v_15 (+ ?v_58 (+ ?v_59 (+ ?v_2 (+ ?v_38 (+ ?v_9 (+ ?v_21 (+ ?v_45 (+ ?v_60 (+ ?v_28 (+ ?v_49 (+ ?v_52 (+ ?v_61 ?v_62))))))))))))))) 1) (<= (+ ?v_8 (+ ?v_48 (+ ?v_43 (+ ?v_75 (+ ?v_3 (+ ?v_50 (+ ?v_63 (+ ?v_32 (+ ?v_59 (+ ?v_21 (+ ?v_39 (+ ?v_60 (+ ?v_17 (+ ?v_28 (+ ?v_33 (+ ?v_61 (+ ?v_30 ?v_76))))))))))))))))) 0) (<= (+ ?v_1 (+ ?v_3 (+ ?v_14 (+ ?v_6 (+ ?v_59 (+ ?v_64 (+ ?v_65 (+ ?v_51 (+ ?v_66 (+ ?v_21 (+ ?v_39 (+ ?v_23 (+ ?v_46 (+ ?v_67 ?v_25)))))))))))))) (- 1)) (<= (+ ?v_55 (+ ?v_77 (+ ?v_31 (+ ?v_57 (+ ?v_32 (+ ?v_14 (+ ?v_94 (+ ?v_59 (+ ?v_70 (+ ?v_21 (+ ?v_39 (+ ?v_60 (+ ?v_61 (+ ?v_30 (+ ?v_35 ?v_13))))))))))))))) 0) (<= (+ ?v_31 (+ ?v_68 (+ ?v_69 (+ ?v_27 (+ ?v_92 (+ ?v_53 (+ ?v_59 (+ ?v_70 (+ ?v_21 (+ ?v_41 (+ ?v_46 ?v_49))))))))))) (- 1)) (<= (+ ?v_71 (+ ?v_8 (+ ?v_32 (+ ?v_65 (+ ?v_38 (+ ?v_73 (+ ?v_40 (+ ?v_41 (+ ?v_46 (+ ?v_12 (+ ?v_4 (+ ?v_69 (+ ?v_59 (+ ?v_21 (+ ?v_61 (+ ?v_42 (+ ?v_26 ?v_72))))))))))))))))) 0) (<= (+ ?v_1 (+ ?v_32 (+ ?v_58 (+ ?v_43 (+ ?v_59 (+ ?v_20 (+ ?v_2 (+ ?v_9 (+ ?v_39 (+ ?v_17 (+ ?v_28 (+ ?v_73 (+ ?v_33 (+ ?v_34 (+ ?v_70 (+ ?v_10 (+ ?v_74 (+ ?v_13 ?v_93)))))))))))))))))) 1) (<= (+ ?v_8 (+ ?v_16 (+ ?v_48 (+ ?v_4 (+ ?v_6 (+ ?v_2 (+ ?v_50 (+ ?v_22 (+ ?v_45 (+ ?v_34 (+ ?v_42 (+ ?v_35 (+ ?v_75 (+ ?v_59 (+ ?v_70 (+ ?v_87 (+ ?v_11 ?v_49))))))))))))))))) 0) (<= (+ ?v_3 (+ ?v_31 (+ ?v_0 (+ ?v_63 (+ ?v_57 (+ ?v_12 (+ ?v_68 (+ ?v_56 (+ ?v_59 (+ ?v_8 (+ ?v_22 (+ ?v_33 (+ ?v_86 (+ ?v_25 (+ ?v_35 (+ ?v_36 ?v_18)))))))))))))))) (- 1)) (<= (+ ?v_37 (+ ?v_3 (+ ?v_0 (+ ?v_57 (+ ?v_16 (+ ?v_69 (+ ?v_59 (+ ?v_8 (+ ?v_51 (+ ?v_39 (+ ?v_60 (+ ?v_11 (+ ?v_30 (+ ?v_67 (+ ?v_52 ?v_76))))))))))))))) 1) (<= (+ ?v_48 (+ ?v_85 (+ ?v_63 (+ ?v_68 (+ ?v_14 (+ ?v_6 (+ ?v_59 (+ ?v_38 (+ ?v_66 (+ ?v_22 (+ ?v_60 (+ ?v_17 (+ ?v_28 (+ ?v_11 (+ ?v_49 (+ ?v_47 ?v_80)))))))))))))))) 0) (<= (+ ?v_1 (+ ?v_5 (+ ?v_71 (+ ?v_77 (+ ?v_9 (+ ?v_50 (+ ?v_27 (+ ?v_59 (+ ?v_44 (+ ?v_39 (+ ?v_56 (+ ?v_60 (+ ?v_24 (+ ?v_78 (+ ?v_49 (+ ?v_33 (+ ?v_53 (+ ?v_35 ?v_79)))))))))))))))))) 0) (<= (+ ?v_15 (+ ?v_3 (+ ?v_31 (+ ?v_69 (+ ?v_58 (+ ?v_43 (+ ?v_53 (+ ?v_59 (+ ?v_39 (+ ?v_45 (+ ?v_60 (+ ?v_24 (+ ?v_28 (+ ?v_33 (+ ?v_67 ?v_80))))))))))))))) 0) (<= (+ ?v_1 (+ ?v_6 (+ ?v_37 (+ ?v_55 (+ ?v_51 (+ ?v_66 (+ ?v_16 (+ ?v_58 (+ ?v_21 (+ ?v_39 (+ ?v_45 (+ ?v_17 (+ ?v_24 (+ ?v_10 (+ ?v_67 ?v_81))))))))))))))) 0) (<= (+ ?v_50 (+ ?v_20 (+ ?v_96 (+ (* (- 2) x21) (+ ?v_56 (+ ?v_70 (+ ?v_21 (+ ?v_39 (+ ?v_24 (+ ?v_28 (+ ?v_30 (+ ?v_35 (+ ?v_10 (+ ?v_49 (+ ?v_52 (+ ?v_47 (+ ?v_74 ?v_18))))))))))))))))) 1) (<= (+ ?v_48 (+ ?v_5 (+ ?v_43 (+ ?v_37 (+ ?v_63 (+ ?v_57 (+ ?v_38 (+ ?v_9 (+ ?v_50 (+ ?v_39 (+ ?v_60 (+ ?v_11 (+ ?v_46 (+ ?v_67 (+ ?v_61 (+ ?v_25 (+ ?v_34 ?v_82))))))))))))))))) (- 1)) (<= (+ ?v_48 (+ ?v_71 (+ ?v_20 (+ ?v_4 (+ ?v_38 (+ ?v_17 (+ ?v_35 (+ ?v_58 (+ ?v_22 (+ ?v_23 (+ ?v_10 (+ ?v_46 (+ ?v_67 (+ ?v_61 (+ ?v_34 ?v_36))))))))))))))) (- 1)) (<= (+ (* (- 2) x0) (+ (* (- 2) x17) (+ ?v_71 (+ ?v_68 (+ ?v_56 (+ ?v_27 (+ (* 2 x14) (+ ?v_38 (+ ?v_39 (+ ?v_41 (+ ?v_46 (+ ?v_12 (+ ?v_33 (+ ?v_61 (+ ?v_29 ?v_35))))))))))))))) 1) (<= (+ ?v_5 (+ ?v_37 (+ ?v_20 (+ ?v_66 (+ ?v_16 (+ ?v_39 (+ ?v_33 (+ ?v_83 (+ ?v_10 (+ ?v_11 (+ ?v_12 (+ ?v_25 (+ ?v_30 (+ ?v_84 (+ ?v_13 ?v_54))))))))))))))) (- 1)) (<= (+ ?v_1 (+ ?v_77 (+ ?v_14 (+ ?v_39 (+ ?v_24 (+ ?v_28 (+ ?v_43 (+ ?v_51 (+ ?v_10 (+ ?v_49 (+ ?v_33 (+ ?v_61 (+ ?v_25 (+ ?v_34 (+ ?v_42 ?v_84))))))))))))))) 0) (<= (+ ?v_1 (+ ?v_8 (+ ?v_85 (+ ?v_38 (+ ?v_9 (+ ?v_58 (+ ?v_43 (+ (* 2 x12) (+ ?v_44 (+ ?v_39 (+ ?v_17 (+ ?v_86 (+ ?v_49 (+ ?v_33 (+ ?v_25 (+ ?v_35 ?v_26)))))))))))))))) 0) (<= (+ ?v_1 (+ ?v_77 (+ ?v_40 (+ ?v_57 (+ ?v_16 (+ ?v_68 (+ ?v_14 (+ ?v_6 (+ ?v_15 (+ ?v_9 (+ ?v_50 (+ ?v_35 (+ ?v_84 (+ ?v_20 (+ ?v_21 (+ ?v_45 (+ ?v_52 ?v_74))))))))))))))))) (- 1)) (<= (+ ?v_1 (+ ?v_85 (+ ?v_32 (+ ?v_12 (+ ?v_56 (+ ?v_14 (+ ?v_6 (+ ?v_8 (+ ?v_9 (+ ?v_50 (+ ?v_60 (+ ?v_17 (+ ?v_28 (+ ?v_33 (+ ?v_84 (+ ?v_70 (+ ?v_36 ?v_91))))))))))))))))) (- 1)) (<= (+ ?v_95 (+ (* (- 2) x10) (+ ?v_8 (+ ?v_16 (+ ?v_69 (+ ?v_2 (+ ?v_38 (+ ?v_50 (+ ?v_24 (+ ?v_61 (+ ?v_34 (+ ?v_84 (+ ?v_51 (+ ?v_36 (+ ?v_22 (+ ?v_23 (+ ?v_87 ?v_88))))))))))))))))) (- 1)) (<= (+ ?v_1 (+ ?v_89 (+ ?v_71 (+ ?v_2 (+ ?v_27 (+ ?v_84 (+ ?v_70 (+ ?v_44 (+ ?v_24 (+ ?v_34 (+ ?v_10 (+ ?v_49 (+ ?v_90 (+ ?v_47 (+ ?v_25 (+ ?v_13 ?v_91)))))))))))))))) (- 1)) (<= (+ ?v_1 (+ ?v_92 (+ ?v_75 (+ ?v_84 (+ ?v_70 (+ ?v_51 (+ ?v_44 (+ ?v_39 (+ ?v_23 (+ ?v_46 (+ ?v_56 (+ ?v_61 (+ ?v_74 (+ ?v_18 ?v_93)))))))))))))) 1) (<= (+ ?v_0 (+ ?v_8 (+ ?v_9 (+ ?v_48 (+ ?v_84 (+ ?v_70 (+ ?v_44 (+ ?v_41 (+ ?v_73 (+ ?v_24 (+ ?v_28 (+ ?v_34 (+ ?v_30 (+ ?v_74 ?v_54)))))))))))))) 0) (<= (+ ?v_5 (+ ?v_63 (+ ?v_57 (+ ?v_32 (+ ?v_83 (+ ?v_15 (+ ?v_8 (+ ?v_2 (+ ?v_9 (+ ?v_50 (+ ?v_46 (+ ?v_33 (+ ?v_53 (+ ?v_69 (+ ?v_30 (+ ?v_42 (+ ?v_84 (+ ?v_70 ?v_74)))))))))))))))))) 0) (<= (+ ?v_1 (+ ?v_5 (+ ?v_0 (+ ?v_20 (+ ?v_17 (+ ?v_34 (+ ?v_68 (+ ?v_56 (+ ?v_94 (+ ?v_27 (+ ?v_70 (+ ?v_22 (+ ?v_10 (+ ?v_67 (+ ?v_47 (+ ?v_25 ?v_54)))))))))))))))) (- 1)) (<= (+ ?v_71 (+ ?v_8 (+ ?v_2 (+ ?v_9 (+ ?v_28 (+ ?v_12 (+ ?v_4 (+ ?v_14 (+ ?v_42 (+ ?v_47 (+ ?v_74 (+ ?v_18 ?v_54)))))))))))) 1) (<= (+ ?v_95 (+ (* (- 2) x24) (+ ?v_5 (+ ?v_37 (+ ?v_77 (+ ?v_3 (+ ?v_50 (+ ?v_96 (+ ?v_39 (+ ?v_45 (+ ?v_40 (+ ?v_57 (+ ?v_46 (+ ?v_33 (+ ?v_47 (+ ?v_29 ?v_26)))))))))))))))) (- 1))))))))
(check-sat)
(exit)
